NAME 
ROWS
 N  OBJ
 L  R0      
 L  R1      
 E  R2      
 E  R3      
 E  R4      
 E  R5      
 E  R6      
COLUMNS
    MARKER    'MARKER'                 'INTORG'
    I0(4)     OBJ       -4
    I0(4)     R0        -20
    I0(4)     R1        -36
    I0(4)     R2        5
    I0(4)     R6        1
    I1(5)     OBJ       3
    I1(5)     R0        89
    I1(5)     R1        199
    I1(5)     R2        10
    I1(5)     R3        19
    I1(5)     R6        1
    MARKER    'MARKER'                 'INTEND'
    C2(4)     OBJ       1
    C2(4)     R0        -5
    C2(4)     R1        -5
    C2(4)     R3        9
    C2(4)     R4        10
    C3(5)     OBJ       9
    C3(5)     R0        -5
    C3(5)     R1        2
    C3(5)     R3        10
    C3(5)     R4        19
    C3(5)     R5        17
    C4(4)     OBJ       5
    C4(4)     R0        9
    C4(4)     R1        -4
    C4(4)     R2        2
    C4(4)     R4        19
    C5(1)     R2        1
    C6(1)     R3        1
    C7(1)     R4        1
    C8(1)     R5        1
    C9(1)     R6        1
RHS
    RHS1      R2        93
    RHS1      R3        71
    RHS1      R4        91
    RHS1      R5        57
BOUNDS
 UP BND1      I0(4)     2
 UP BND1      I1(5)     2
ENDATA
